p edge 440 1320
e 1 281
e 1 315
e 1 341
e 2 158
e 2 191
e 2 207
e 3 39
e 3 197
e 3 416
e 4 35
e 4 136
e 4 158
e 5 83
e 5 272
e 5 289
e 6 43
e 6 194
e 6 425
e 7 42
e 7 259
e 7 379
e 8 260
e 8 368
e 8 418
e 9 26
e 9 105
e 9 323
e 10 22
e 10 114
e 10 248
e 11 38
e 11 330
e 11 418
e 12 97
e 12 335
e 12 412
e 13 359
e 13 395
e 13 435
e 14 66
e 14 276
e 14 341
e 15 58
e 15 92
e 15 234
e 16 65
e 16 108
e 16 321
e 17 51
e 17 99
e 17 255
e 18 27
e 18 247
e 18 260
e 19 196
e 19 336
e 19 383
e 20 94
e 20 231
e 20 410
e 21 136
e 21 167
e 21 193
e 22 55
e 22 137
e 22 137
e 23 20
e 23 114
e 23 329
e 24 177
e 24 364
e 24 397
e 25 219
e 25 356
e 25 413
e 26 189
e 26 318
e 26 408
e 27 235
e 27 333
e 27 349
e 28 64
e 28 91
e 28 252
e 29 219
e 29 342
e 29 367
e 30 135
e 30 304
e 30 358
e 31 136
e 31 335
e 31 368
e 32 186
e 32 394
e 32 426
e 33 132
e 33 253
e 33 335
e 34 145
e 34 160
e 34 277
e 35 28
e 35 70
e 35 390
e 36 194
e 36 219
e 36 424
e 37 238
e 37 247
e 37 355
e 38 43
e 38 155
e 38 278
e 39 62
e 39 181
e 39 439
e 40 319
e 40 353
e 40 399
e 41 18
e 41 66
e 41 101
e 42 272
e 42 366
e 42 399
e 43 48
e 43 126
e 43 168
e 44 170
e 44 362
e 44 389
e 45 119
e 45 225
e 45 246
e 46 228
e 46 235
e 46 382
e 47 190
e 47 304
e 47 340
e 48 122
e 48 198
e 48 279
e 49 32
e 49 38
e 49 135
e 50 186
e 50 192
e 50 211
e 51 237
e 51 364
e 51 405
e 52 34
e 52 116
e 52 151
e 53 158
e 53 319
e 53 332
e 54 59
e 54 156
e 54 311
e 55 159
e 55 224
e 55 308
e 56 169
e 56 292
e 56 374
e 57 36
e 57 246
e 57 333
e 58 41
e 58 83
e 58 332
e 59 399
e 59 405
e 59 414
e 60 183
e 60 219
e 60 291
e 61 48
e 61 341
e 61 417
e 62 204
e 62 312
e 62 411
e 63 185
e 63 303
e 63 317
e 64 60
e 64 114
e 64 423
e 65 149
e 65 267
e 65 299
e 66 270
e 66 385
e 66 398
e 67 263
e 67 284
e 67 385
e 68 75
e 68 142
e 68 418
e 69 1
e 69 255
e 69 283
e 70 122
e 70 352
e 70 397
e 71 57
e 71 233
e 71 376
e 72 55
e 72 256
e 72 411
e 73 38
e 73 98
e 73 376
e 74 163
e 74 206
e 74 282
e 75 100
e 75 103
e 75 214
e 76 94
e 76 114
e 76 178
e 77 278
e 77 318
e 77 405
e 78 105
e 78 214
e 78 419
e 79 314
e 79 316
e 79 431
e 80 128
e 80 289
e 80 421
e 81 72
e 81 128
e 81 297
e 82 264
e 82 315
e 82 393
e 83 117
e 83 202
e 83 243
e 84 202
e 84 207
e 84 286
e 85 28
e 85 67
e 85 329
e 86 137
e 86 199
e 86 260
e 87 44
e 87 95
e 87 259
e 88 10
e 88 193
e 88 405
e 89 98
e 89 176
e 89 324
e 90 127
e 90 276
e 90 406
e 91 232
e 91 357
e 91 417
e 92 64
e 92 81
e 92 94
e 93 217
e 93 261
e 93 320
e 94 72
e 94 123
e 94 251
e 95 195
e 95 199
e 95 244
e 96 203
e 96 251
e 96 309
e 97 74
e 97 100
e 97 271
e 98 32
e 98 155
e 98 354
e 99 190
e 99 316
e 99 362
e 100 275
e 100 370
e 100 385
e 101 233
e 101 239
e 101 402
e 102 56
e 102 279
e 102 341
e 103 51
e 103 62
e 103 202
e 104 379
e 104 381
e 104 400
e 105 28
e 105 78
e 105 386
e 106 209
e 106 214
e 106 362
e 107 21
e 107 227
e 107 429
e 108 15
e 108 250
e 108 281
e 109 87
e 109 200
e 109 308
e 110 69
e 110 91
e 110 214
e 111 53
e 111 72
e 111 437
e 112 267
e 112 308
e 112 416
e 113 130
e 113 279
e 113 417
e 114 10
e 114 180
e 114 312
e 115 56
e 115 203
e 115 394
e 116 17
e 116 164
e 116 261
e 117 36
e 117 162
e 117 186
e 118 236
e 118 372
e 118 389
e 119 43
e 119 223
e 119 307
e 120 168
e 120 327
e 120 437
e 121 47
e 121 252
e 121 272
e 122 231
e 122 242
e 122 292
e 123 240
e 123 371
e 123 408
e 124 29
e 124 107
e 124 284
e 125 86
e 125 206
e 125 255
e 126 203
e 126 320
e 126 337
e 127 139
e 127 144
e 127 295
e 128 88
e 128 129
e 128 181
e 129 54
e 129 136
e 129 191
e 130 308
e 130 339
e 130 361
e 131 281
e 131 296
e 131 351
e 132 42
e 132 214
e 132 294
e 133 2
e 133 218
e 133 297
e 134 142
e 134 345
e 134 376
e 135 11
e 135 28
e 135 52
e 136 35
e 136 256
e 136 264
e 137 57
e 137 259
e 137 279
e 138 39
e 138 213
e 138 230
e 139 176
e 139 322
e 139 412
e 140 48
e 140 331
e 140 382
e 141 79
e 141 408
e 141 418
e 142 144
e 142 258
e 142 311
e 143 85
e 143 201
e 143 324
e 144 30
e 144 220
e 144 386
e 145 111
e 145 226
e 145 405
e 146 82
e 146 270
e 146 290
e 147 196
e 147 245
e 147 382
e 148 37
e 148 246
e 148 275
e 149 104
e 149 204
e 149 416
e 150 255
e 150 334
e 150 414
e 151 16
e 151 149
e 151 155
e 152 32
e 152 145
e 152 290
e 153 40
e 153 197
e 153 357
e 154 92
e 154 112
e 154 374
e 155 106
e 155 361
e 155 421
e 156 33
e 156 82
e 156 328
e 157 59
e 157 208
e 157 328
e 158 134
e 158 143
e 158 145
e 159 242
e 159 364
e 159 385
e 160 74
e 160 149
e 160 265
e 161 207
e 161 344
e 161 422
e 162 11
e 162 25
e 162 382
e 163 211
e 163 216
e 163 251
e 164 14
e 164 299
e 164 409
e 165 14
e 165 45
e 165 343
e 166 57
e 166 269
e 166 391
e 167 162
e 167 270
e 167 285
e 168 78
e 168 115
e 168 201
e 169 286
e 169 309
e 169 340
e 170 5
e 170 321
e 170 381
e 171 66
e 171 327
e 171 418
e 172 36
e 172 198
e 172 269
e 173 77
e 173 125
e 173 393
e 174 172
e 174 316
e 174 330
e 175 116
e 175 130
e 175 367
e 176 177
e 176 285
e 176 394
e 177 19
e 177 27
e 177 270
e 178 7
e 178 65
e 178 421
e 179 109
e 179 127
e 179 198
e 180 100
e 180 173
e 180 434
e 181 51
e 181 140
e 181 262
e 182 13
e 182 309
e 182 370
e 183 221
e 183 243
e 183 347
e 184 90
e 184 263
e 184 436
e 185 67
e 185 123
e 185 343
e 186 44
e 186 204
e 186 234
e 187 184
e 187 188
e 187 429
e 188 85
e 188 140
e 188 232
e 189 195
e 189 273
e 189 308
e 190 168
e 190 204
e 190 386
e 191 56
e 191 304
e 191 388
e 192 118
e 192 215
e 192 230
e 193 23
e 193 325
e 193 389
e 194 82
e 194 86
e 194 98
e 195 14
e 195 75
e 195 244
e 196 80
e 196 215
e 196 334
e 197 65
e 197 202
e 197 302
e 198 20
e 198 125
e 198 227
e 199 29
e 199 420
e 199 422
e 200 151
e 200 183
e 200 282
e 201 45
e 201 389
e 201 396
e 202 50
e 202 228
e 202 323
e 203 19
e 203 189
e 203 339
e 204 248
e 204 270
e 204 323
e 205 68
e 205 148
e 205 193
e 206 2
e 206 271
e 206 275
e 207 100
e 207 135
e 207 367
e 208 83
e 208 160
e 208 313
e 209 262
e 209 350
e 209 393
e 210 153
e 210 179
e 210 309
e 211 83
e 211 286
e 211 373
e 212 199
e 212 271
e 212 369
e 213 10
e 213 22
e 213 100
e 214 202
e 214 303
e 214 333
e 215 92
e 215 369
e 215 382
e 216 64
e 216 138
e 216 140
e 217 13
e 217 113
e 217 199
e 218 78
e 218 97
e 218 359
e 219 13
e 219 325
e 219 416
e 220 81
e 220 401
e 220 420
e 221 229
e 221 400
e 221 402
e 222 233
e 222 355
e 222 363
e 223 213
e 223 226
e 223 384
e 224 122
e 224 157
e 224 404
e 225 26
e 225 43
e 225 179
e 226 176
e 226 263
e 226 426
e 227 67
e 227 260
e 227 362
e 228 184
e 228 375
e 228 433
e 229 4
e 229 166
e 229 267
e 230 113
e 230 194
e 230 259
e 231 70
e 231 257
e 231 378
e 232 269
e 232 289
e 232 397
e 233 34
e 233 59
e 233 369
e 234 94
e 234 210
e 234 365
e 235 56
e 235 70
e 235 408
e 236 182
e 236 298
e 236 326
e 237 6
e 237 17
e 237 392
e 238 163
e 238 230
e 238 373
e 239 89
e 239 178
e 239 205
e 240 63
e 240 68
e 240 136
e 241 168
e 241 201
e 241 266
e 242 186
e 242 238
e 242 395
e 243 41
e 243 132
e 243 267
e 244 8
e 244 144
e 244 230
e 245 252
e 245 307
e 245 424
e 246 89
e 246 222
e 246 403
e 247 71
e 247 108
e 247 392
e 248 33
e 248 69
e 248 322
e 249 145
e 249 256
e 249 317
e 250 126
e 250 325
e 250 374
e 251 11
e 251 174
e 251 201
e 252 182
e 252 188
e 252 369
e 253 142
e 253 266
e 253 402
e 254 158
e 254 291
e 254 393
e 255 67
e 255 117
e 255 373
e 256 70
e 256 295
e 256 332
e 257 12
e 257 25
e 257 133
e 258 61
e 258 111
e 258 281
e 259 65
e 259 71
e 259 257
e 260 84
e 260 254
e 260 338
e 261 206
e 261 368
e 261 440
e 262 157
e 262 172
e 262 268
e 263 63
e 263 240
e 263 438
e 264 93
e 264 189
e 264 253
e 265 26
e 265 277
e 265 384
e 266 137
e 266 146
e 266 296
e 267 21
e 267 31
e 267 36
e 268 131
e 268 150
e 268 225
e 269 8
e 269 94
e 269 339
e 270 58
e 270 74
e 270 440
e 271 26
e 271 70
e 271 342
e 272 118
e 272 158
e 272 395
e 273 229
e 273 246
e 273 398
e 274 248
e 274 268
e 274 310
e 275 28
e 275 82
e 275 360
e 276 336
e 276 385
e 276 393
e 277 9
e 277 235
e 277 276
e 278 102
e 278 159
e 278 438
e 279 2
e 279 60
e 279 75
e 280 105
e 280 171
e 280 411
e 281 28
e 281 145
e 281 260
e 282 178
e 282 207
e 282 215
e 283 2
e 283 135
e 283 402
e 284 9
e 284 76
e 284 329
e 285 56
e 285 76
e 285 187
e 286 73
e 286 81
e 286 235
e 287 102
e 287 297
e 287 352
e 288 89
e 288 102
e 288 391
e 289 21
e 289 218
e 289 240
e 290 78
e 290 123
e 290 201
e 291 11
e 291 76
e 291 161
e 292 145
e 292 172
e 292 386
e 293 225
e 293 351
e 293 398
e 294 42
e 294 138
e 294 274
e 295 9
e 295 164
e 295 400
e 296 3
e 296 20
e 296 139
e 297 135
e 297 149
e 297 197
e 298 65
e 298 136
e 298 241
e 299 141
e 299 159
e 299 220
e 300 203
e 300 297
e 300 366
e 301 243
e 301 368
e 301 380
e 302 137
e 302 158
e 302 376
e 303 108
e 303 154
e 303 230
e 304 174
e 304 189
e 304 427
e 305 38
e 305 171
e 305 311
e 306 86
e 306 138
e 306 200
e 307 164
e 307 231
e 307 386
e 308 9
e 308 24
e 308 83
e 309 7
e 309 124
e 309 188
e 310 146
e 310 299
e 310 406
e 311 52
e 311 165
e 311 288
e 312 134
e 312 149
e 312 180
e 313 73
e 313 214
e 313 355
e 314 270
e 314 363
e 314 383
e 315 66
e 315 278
e 315 431
e 316 301
e 316 308
e 316 433
e 317 26
e 317 80
e 317 154
e 318 80
e 318 226
e 318 385
e 319 101
e 319 268
e 319 285
e 320 34
e 320 270
e 320 352
e 321 138
e 321 212
e 321 356
e 322 234
e 322 236
e 322 298
e 323 298
e 323 316
e 323 366
e 324 121
e 324 197
e 324 244
e 325 152
e 325 389
e 325 415
e 326 56
e 326 71
e 326 151
e 327 265
e 327 350
e 327 356
e 328 49
e 328 87
e 328 284
e 329 265
e 329 281
e 329 402
e 330 120
e 330 346
e 330 432
e 331 11
e 331 254
e 331 396
e 332 50
e 332 333
e 332 390
e 333 129
e 333 188
e 333 346
e 334 33
e 334 249
e 334 429
e 335 108
e 335 191
e 335 259
e 336 66
e 336 246
e 336 287
e 337 11
e 337 68
e 337 326
e 338 41
e 338 183
e 338 348
e 339 39
e 339 42
e 339 284
e 340 50
e 340 190
e 340 379
e 341 15
e 341 146
e 341 384
e 342 52
e 342 114
e 342 360
e 343 47
e 343 62
e 343 419
e 344 54
e 344 141
e 344 408
e 345 40
e 345 111
e 345 312
e 346 125
e 346 266
e 346 400
e 347 122
e 347 161
e 347 325
e 348 170
e 348 261
e 348 309
e 349 2
e 349 158
e 349 281
e 350 53
e 350 109
e 350 157
e 351 119
e 351 128
e 351 407
e 352 13
e 352 206
e 352 354
e 353 106
e 353 281
e 353 430
e 354 33
e 354 319
e 354 347
e 355 101
e 355 328
e 355 438
e 356 44
e 356 220
e 356 387
e 357 143
e 357 271
e 357 305
e 358 94
e 358 115
e 358 356
e 359 235
e 359 300
e 359 318
e 360 122
e 360 221
e 360 341
e 361 76
e 361 233
e 361 345
e 362 177
e 362 178
e 362 251
e 363 293
e 363 346
e 363 393
e 364 1
e 364 47
e 364 394
e 365 49
e 365 99
e 365 216
e 366 55
e 366 152
e 366 215
e 367 232
e 367 280
e 367 369
e 368 96
e 368 210
e 368 220
e 369 126
e 369 297
e 369 386
e 370 46
e 370 88
e 370 372
e 371 20
e 371 175
e 371 275
e 372 130
e 372 242
e 372 310
e 373 2
e 373 356
e 373 439
e 374 31
e 374 197
e 374 356
e 375 302
e 375 318
e 375 377
e 376 189
e 376 359
e 376 371
e 377 108
e 377 110
e 377 388
e 378 63
e 378 96
e 378 237
e 379 142
e 379 165
e 379 194
e 380 92
e 380 168
e 380 365
e 381 94
e 381 306
e 381 393
e 382 147
e 382 276
e 382 321
e 383 118
e 383 366
e 383 374
e 384 242
e 384 269
e 384 319
e 385 42
e 385 176
e 385 203
e 386 76
e 386 190
e 386 428
e 387 61
e 387 258
e 387 317
e 388 62
e 388 91
e 388 319
e 389 75
e 389 165
e 389 385
e 390 93
e 390 246
e 390 320
e 391 175
e 391 393
e 391 433
e 392 46
e 392 164
e 392 214
e 393 74
e 393 412
e 393 434
e 394 84
e 394 276
e 394 311
e 395 156
e 395 224
e 395 265
e 396 167
e 396 217
e 396 402
e 397 249
e 397 260
e 397 334
e 398 53
e 398 250
e 398 334
e 399 31
e 399 203
e 399 337
e 400 100
e 400 110
e 400 212
e 401 139
e 401 244
e 401 288
e 402 289
e 402 304
e 402 403
e 403 246
e 403 316
e 403 319
e 404 78
e 404 260
e 404 344
e 405 143
e 405 322
e 405 393
e 406 57
e 406 218
e 406 288
e 407 56
e 407 93
e 407 409
e 408 202
e 408 216
e 408 271
e 409 64
e 409 223
e 409 258
e 410 72
e 410 147
e 410 329
e 411 185
e 411 353
e 411 413
e 412 150
e 412 257
e 412 374
e 413 5
e 413 218
e 413 242
e 414 124
e 414 267
e 414 341
e 415 107
e 415 191
e 415 421
e 416 152
e 416 224
e 416 245
e 417 190
e 417 238
e 417 440
e 418 65
e 418 240
e 418 254
e 419 29
e 419 129
e 419 318
e 420 34
e 420 37
e 420 423
e 421 95
e 421 254
e 421 350
e 422 39
e 422 79
e 422 117
e 423 58
e 423 309
e 423 383
e 424 30
e 424 122
e 424 153
e 425 101
e 425 127
e 425 324
e 426 162
e 426 162
e 426 251
e 427 130
e 427 286
e 427 375
e 428 290
e 428 336
e 428 434
e 429 315
e 429 348
e 429 432
e 430 40
e 430 90
e 430 190
e 431 65
e 431 166
e 431 342
e 432 169
e 432 254
e 432 415
e 433 53
e 433 366
e 433 392
e 434 30
e 434 83
e 434 326
e 435 66
e 435 273
e 435 394
e 436 15
e 436 65
e 436 296
e 437 31
e 437 255
e 437 280
e 438 89
e 438 133
e 438 284
e 439 116
e 439 124
e 439 313
e 440 181
e 440 362
e 440 402
